(set-logic QF_UF)
(declare-fun G101 () Bool)
(declare-fun G104 () Bool)
(declare-fun G107 () Bool)
(declare-fun G110 () Bool)
(declare-fun G113 () Bool)
(declare-fun G116 () Bool)
(declare-fun G119 () Bool)
(declare-fun G122 () Bool)
(declare-fun G125 () Bool)
(declare-fun G128 () Bool)
(declare-fun G131 () Bool)
(declare-fun G134 () Bool)
(declare-fun G137 () Bool)
(declare-fun G140 () Bool)
(declare-fun G143 () Bool)
(declare-fun G146 () Bool)
(declare-fun G210 () Bool)
(declare-fun G214 () Bool)
(declare-fun G217 () Bool)
(declare-fun G221 () Bool)
(declare-fun G224 () Bool)
(declare-fun G227 () Bool)
(declare-fun G234 () Bool)
(declare-fun G237 () Bool)
(declare-fun G469 () Bool)
(declare-fun G472 () Bool)
(declare-fun G475 () Bool)
(declare-fun G478 () Bool)
(declare-fun G898 () Bool)
(declare-fun G900 () Bool)
(declare-fun G902 () Bool)
(declare-fun G952 () Bool)
(declare-fun G953 () Bool)
(assert (let ((.def_0 (not G140))) (let ((.def_1 (and .def_0 G110))) (let ((.def_2 (not .def_1))) (let ((.def_3 (not G110))) (let ((.def_4 (and G140 .def_3))) (let ((.def_5 (not .def_4))) (let ((.def_6 (and .def_5 .def_2))) (let ((.def_7 (not G953))) (let ((.def_8 (and .def_7 G227))) (let ((.def_9 (and .def_8 .def_6))) (let ((.def_10 (not .def_9))) (let ((.def_11 (not .def_6))) (let ((.def_12 (not .def_8))) (let ((.def_13 (and .def_12 .def_11))) (let ((.def_14 (not .def_13))) (let ((.def_15 (and .def_14 .def_10))) (let ((.def_16 (not G101))) (let ((.def_17 (not G107))) (let ((.def_18 (and G104 .def_17))) (let ((.def_19 (not .def_18))) (let ((.def_20 (not G104))) (let ((.def_21 (and .def_20 G107))) (let ((.def_22 (not .def_21))) (let ((.def_23 (and .def_22 .def_19))) (let ((.def_24 (and .def_23 .def_16))) (let ((.def_25 (not .def_24))) (let ((.def_26 (not .def_23))) (let ((.def_27 (and .def_26 G101))) (let ((.def_28 (not .def_27))) (let ((.def_29 (and .def_28 .def_25))) (let ((.def_30 (not .def_29))) (let ((.def_31 (not G146))) (let ((.def_32 (and .def_31 G143))) (let ((.def_33 (not .def_32))) (let ((.def_34 (not G143))) (let ((.def_35 (and G146 .def_34))) (let ((.def_36 (not .def_35))) (let ((.def_37 (and .def_36 .def_33))) (let ((.def_38 (not G128))) (let ((.def_39 (and .def_38 .def_37))) (let ((.def_40 (not .def_39))) (let ((.def_41 (not .def_37))) (let ((.def_42 (and G128 .def_41))) (let ((.def_43 (not .def_42))) (let ((.def_44 (and .def_43 .def_40))) (let ((.def_45 (not .def_44))) (let ((.def_46 (and .def_45 .def_30))) (let ((.def_47 (not .def_46))) (let ((.def_48 (and .def_29 .def_44))) (let ((.def_49 (not .def_48))) (let ((.def_50 (and .def_49 .def_47))) (let ((.def_51 (not .def_50))) (let ((.def_52 (not G137))) (let ((.def_53 (and .def_52 G134))) (let ((.def_54 (not .def_53))) (let ((.def_55 (not G134))) (let ((.def_56 (and .def_55 G137))) (let ((.def_57 (not .def_56))) (let ((.def_58 (and .def_57 .def_54))) (let ((.def_59 (not G131))) (let ((.def_60 (and .def_59 .def_58))) (let ((.def_61 (not .def_60))) (let ((.def_62 (not .def_58))) (let ((.def_63 (and .def_62 G131))) (let ((.def_64 (not .def_63))) (let ((.def_65 (and .def_64 .def_61))) (let ((.def_66 (not .def_65))) (let ((.def_67 (and .def_66 .def_51))) (let ((.def_68 (not .def_67))) (let ((.def_69 (and .def_65 .def_50))) (let ((.def_70 (not .def_69))) (let ((.def_71 (and .def_70 .def_68))) (let ((.def_72 (and .def_71 .def_15))) (let ((.def_73 (not .def_72))) (let ((.def_74 (not .def_15))) (let ((.def_75 (not .def_71))) (let ((.def_76 (and .def_75 .def_74))) (let ((.def_77 (not .def_76))) (let ((.def_78 (and .def_77 .def_73))) (let ((.def_79 (not .def_78))) (let ((.def_80 (not G902))) (let ((.def_81 (and .def_80 .def_79))) (let ((.def_82 (not .def_81))) (let ((.def_83 (and .def_82 G469))) (let ((.def_84 (not .def_83))) (let ((.def_85 (not G469))) (let ((.def_86 (and .def_85 .def_81))) (let ((.def_87 (not .def_86))) (let ((.def_88 (and .def_87 .def_84))) (let ((.def_89 (and .def_80 G234))) (let ((.def_90 (not .def_89))) (let ((.def_91 (and G221 .def_90))) (let ((.def_92 (not .def_91))) (let ((.def_93 (and .def_92 .def_88))) (let ((.def_94 (not G237))) (let ((.def_95 (and .def_80 .def_94))) (let ((.def_96 (not .def_95))) (let ((.def_97 (and G214 .def_96))) (let ((.def_98 (not .def_97))) (let ((.def_99 (not G119))) (let ((.def_100 (and G116 .def_99))) (let ((.def_101 (not .def_100))) (let ((.def_102 (not G116))) (let ((.def_103 (and G119 .def_102))) (let ((.def_104 (not .def_103))) (let ((.def_105 (and .def_104 .def_101))) (let ((.def_106 (not .def_105))) (let ((.def_107 (and G113 .def_106))) (let ((.def_108 (not .def_107))) (let ((.def_109 (not G113))) (let ((.def_110 (and .def_109 .def_105))) (let ((.def_111 (not .def_110))) (let ((.def_112 (and .def_111 .def_108))) (let ((.def_113 (and .def_17 G104))) (let ((.def_114 (not .def_113))) (let ((.def_115 (and G107 .def_20))) (let ((.def_116 (not .def_115))) (let ((.def_117 (and .def_116 .def_114))) (let ((.def_118 (and .def_117 .def_16))) (let ((.def_119 (not .def_118))) (let ((.def_120 (not .def_117))) (let ((.def_121 (and .def_120 G101))) (let ((.def_122 (not .def_121))) (let ((.def_123 (and .def_122 .def_119))) (let ((.def_124 (and .def_123 .def_112))) (let ((.def_125 (not .def_124))) (let ((.def_126 (not .def_123))) (let ((.def_127 (not .def_112))) (let ((.def_128 (and .def_127 .def_126))) (let ((.def_129 (not .def_128))) (let ((.def_130 (and .def_129 .def_125))) (let ((.def_131 (and .def_3 G122))) (let ((.def_132 (not .def_131))) (let ((.def_133 (not G122))) (let ((.def_134 (and G110 .def_133))) (let ((.def_135 (not .def_134))) (let ((.def_136 (and .def_135 .def_132))) (let ((.def_137 (and .def_136 .def_130))) (let ((.def_138 (not .def_137))) (let ((.def_139 (not .def_130))) (let ((.def_140 (not .def_136))) (let ((.def_141 (and .def_140 .def_139))) (let ((.def_142 (not .def_141))) (let ((.def_143 (and .def_142 .def_138))) (let ((.def_144 (not G125))) (let ((.def_145 (and .def_34 G146))) (let ((.def_146 (not .def_145))) (let ((.def_147 (and .def_33 .def_146))) (let ((.def_148 (not .def_147))) (let ((.def_149 (and G128 .def_148))) (let ((.def_150 (not .def_149))) (let ((.def_151 (and .def_147 .def_38))) (let ((.def_152 (not .def_151))) (let ((.def_153 (and .def_152 .def_150))) (let ((.def_154 (and .def_153 .def_144))) (let ((.def_155 (not .def_154))) (let ((.def_156 (not .def_153))) (let ((.def_157 (and .def_156 G125))) (let ((.def_158 (not .def_157))) (let ((.def_159 (and .def_158 .def_155))) (let ((.def_160 (and G224 .def_7))) (let ((.def_161 (and .def_160 .def_159))) (let ((.def_162 (not .def_161))) (let ((.def_163 (not .def_160))) (let ((.def_164 (not .def_159))) (let ((.def_165 (and .def_164 .def_163))) (let ((.def_166 (not .def_165))) (let ((.def_167 (and .def_166 .def_162))) (let ((.def_168 (and .def_167 .def_143))) (let ((.def_169 (not .def_168))) (let ((.def_170 (not .def_143))) (let ((.def_171 (not .def_167))) (let ((.def_172 (and .def_171 .def_170))) (let ((.def_173 (not .def_172))) (let ((.def_174 (and .def_173 .def_169))) (let ((.def_175 (and .def_174 .def_80))) (let ((.def_176 (not .def_175))) (let ((.def_177 (and .def_96 G210))) (let ((.def_178 (and .def_177 .def_176))) (let ((.def_179 (not .def_178))) (let ((.def_180 (not .def_177))) (let ((.def_181 (and .def_180 .def_175))) (let ((.def_182 (not .def_181))) (let ((.def_183 (and .def_182 .def_179))) (let ((.def_184 (not .def_183))) (let ((.def_185 (and .def_184 .def_98))) (let ((.def_186 (and G237 G234))) (let ((.def_187 (not .def_186))) (let ((.def_188 (not G898))) (let ((.def_189 (and .def_188 G953 .def_187 G902))) (let ((.def_190 (not .def_189))) (let ((.def_191 (and .def_187 .def_7 G952))) (let ((.def_192 (not .def_191))) (let ((.def_193 (and .def_192 .def_190))) (let ((.def_194 (not .def_193))) (let ((.def_195 (and G128 .def_99))) (let ((.def_196 (not .def_195))) (let ((.def_197 (and G119 .def_38))) (let ((.def_198 (not .def_197))) (let ((.def_199 (and .def_198 .def_196))) (let ((.def_200 (not .def_199))) (let ((.def_201 (and .def_200 G110))) (let ((.def_202 (not .def_201))) (let ((.def_203 (and .def_3 .def_199))) (let ((.def_204 (not .def_203))) (let ((.def_205 (and .def_204 .def_202))) (let ((.def_206 (and .def_144 G140))) (let ((.def_207 (not .def_206))) (let ((.def_208 (and .def_0 G125))) (let ((.def_209 (not .def_208))) (let ((.def_210 (and .def_209 .def_207))) (let ((.def_211 (and .def_210 .def_31))) (let ((.def_212 (not .def_211))) (let ((.def_213 (not .def_210))) (let ((.def_214 (and G146 .def_213))) (let ((.def_215 (not .def_214))) (let ((.def_216 (and .def_215 .def_212))) (let ((.def_217 (not .def_216))) (let ((.def_218 (and .def_217 .def_205))) (let ((.def_219 (not .def_218))) (let ((.def_220 (not .def_205))) (let ((.def_221 (and .def_216 .def_220))) (let ((.def_222 (not .def_221))) (let ((.def_223 (and .def_222 .def_219))) (let ((.def_224 (not .def_223))) (let ((.def_225 (and G234 G221 .def_7))) (let ((.def_226 (and G137 .def_225))) (let ((.def_227 (not .def_226))) (let ((.def_228 (not .def_225))) (let ((.def_229 (and .def_228 .def_52))) (let ((.def_230 (not .def_229))) (let ((.def_231 (and .def_230 .def_227))) (let ((.def_232 (not .def_231))) (let ((.def_233 (and .def_232 .def_224))) (let ((.def_234 (not .def_233))) (let ((.def_235 (and .def_231 .def_223))) (let ((.def_236 (not .def_235))) (let ((.def_237 (and .def_236 .def_234))) (let ((.def_238 (not .def_237))) (let ((.def_239 (and .def_238 .def_80))) (let ((.def_240 (not .def_239))) (let ((.def_241 (and .def_90 G217))) (let ((.def_242 (and .def_241 .def_240))) (let ((.def_243 (not .def_242))) (let ((.def_244 (not .def_241))) (let ((.def_245 (and .def_244 .def_239))) (let ((.def_246 (not .def_245))) (let ((.def_247 (and .def_246 .def_243))) (let ((.def_248 (and .def_7 .def_94 G210))) (let ((.def_249 (and G101 .def_248))) (let ((.def_250 (not .def_249))) (let ((.def_251 (not .def_248))) (let ((.def_252 (and .def_16 .def_251))) (let ((.def_253 (not .def_252))) (let ((.def_254 (and .def_253 .def_250))) (let ((.def_255 (not .def_254))) (let ((.def_256 (and .def_102 G119))) (let ((.def_257 (not .def_256))) (let ((.def_258 (and .def_101 .def_257))) (let ((.def_259 (and .def_109 .def_258))) (let ((.def_260 (not .def_259))) (let ((.def_261 (not .def_258))) (let ((.def_262 (and .def_261 G113))) (let ((.def_263 (not .def_262))) (let ((.def_264 (and .def_263 .def_260))) (let ((.def_265 (and .def_153 .def_65))) (let ((.def_266 (not .def_265))) (let ((.def_267 (and .def_66 .def_156))) (let ((.def_268 (not .def_267))) (let ((.def_269 (and .def_268 .def_266))) (let ((.def_270 (and .def_269 .def_264))) (let ((.def_271 (not .def_270))) (let ((.def_272 (not .def_264))) (let ((.def_273 (not .def_269))) (let ((.def_274 (and .def_273 .def_272))) (let ((.def_275 (not .def_274))) (let ((.def_276 (and .def_275 .def_271))) (let ((.def_277 (and .def_276 .def_255))) (let ((.def_278 (not .def_277))) (let ((.def_279 (not .def_276))) (let ((.def_280 (and .def_254 .def_279))) (let ((.def_281 (not .def_280))) (let ((.def_282 (and .def_281 .def_278))) (let ((.def_283 (not .def_282))) (let ((.def_284 (and .def_80 .def_283))) (let ((.def_285 (not .def_284))) (let ((.def_286 (and G472 .def_285))) (let ((.def_287 (not .def_286))) (let ((.def_288 (not G472))) (let ((.def_289 (and .def_288 .def_284))) (let ((.def_290 (not .def_289))) (let ((.def_291 (and .def_290 .def_287))) (let ((.def_292 (not .def_291))) (let ((.def_293 (and .def_292 .def_247))) (let ((.def_294 (and .def_31 .def_210))) (let ((.def_295 (not .def_294))) (let ((.def_296 (and .def_215 .def_295))) (let ((.def_297 (and .def_7 G214 .def_94))) (let ((.def_298 (and G143 .def_297))) (let ((.def_299 (not .def_298))) (let ((.def_300 (not .def_297))) (let ((.def_301 (and .def_34 .def_300))) (let ((.def_302 (not .def_301))) (let ((.def_303 (and .def_302 .def_299))) (let ((.def_304 (and .def_303 .def_59))) (let ((.def_305 (not .def_304))) (let ((.def_306 (not .def_303))) (let ((.def_307 (and .def_306 G131))) (let ((.def_308 (not .def_307))) (let ((.def_309 (and .def_308 .def_305))) (let ((.def_310 (not .def_309))) (let ((.def_311 (and .def_310 .def_296))) (let ((.def_312 (not .def_311))) (let ((.def_313 (not .def_296))) (let ((.def_314 (and .def_313 .def_309))) (let ((.def_315 (not .def_314))) (let ((.def_316 (and .def_315 .def_312))) (let ((.def_317 (and G122 .def_109))) (let ((.def_318 (not .def_317))) (let ((.def_319 (and .def_133 G113))) (let ((.def_320 (not .def_319))) (let ((.def_321 (and .def_320 .def_318))) (let ((.def_322 (and .def_321 .def_20))) (let ((.def_323 (not .def_322))) (let ((.def_324 (not .def_321))) (let ((.def_325 (and G104 .def_324))) (let ((.def_326 (not .def_325))) (let ((.def_327 (and .def_326 .def_323))) (let ((.def_328 (not .def_327))) (let ((.def_329 (and .def_328 .def_316))) (let ((.def_330 (not .def_329))) (let ((.def_331 (not .def_316))) (let ((.def_332 (and .def_327 .def_331))) (let ((.def_333 (not .def_332))) (let ((.def_334 (and .def_333 .def_330))) (let ((.def_335 (not .def_334))) (let ((.def_336 (and .def_80 .def_335))) (let ((.def_337 (not G475))) (let ((.def_338 (and .def_337 .def_336))) (let ((.def_339 (not .def_338))) (let ((.def_340 (not .def_336))) (let ((.def_341 (and .def_340 G475))) (let ((.def_342 (not .def_341))) (let ((.def_343 (and .def_342 .def_339))) (let ((.def_344 (not .def_343))) (let ((.def_345 (and .def_7 G234 G217))) (let ((.def_346 (not .def_345))) (let ((.def_347 (and G116 .def_133))) (let ((.def_348 (not .def_347))) (let ((.def_349 (and .def_102 G122))) (let ((.def_350 (not .def_349))) (let ((.def_351 (and .def_350 .def_348))) (let ((.def_352 (not .def_351))) (let ((.def_353 (and .def_352 G107))) (let ((.def_354 (not .def_353))) (let ((.def_355 (and .def_351 .def_17))) (let ((.def_356 (not .def_355))) (let ((.def_357 (and .def_356 .def_354))) (let ((.def_358 (and .def_38 G143))) (let ((.def_359 (not .def_358))) (let ((.def_360 (and .def_34 G128))) (let ((.def_361 (not .def_360))) (let ((.def_362 (and .def_361 .def_359))) (let ((.def_363 (and .def_362 .def_55))) (let ((.def_364 (not .def_363))) (let ((.def_365 (not .def_362))) (let ((.def_366 (and G134 .def_365))) (let ((.def_367 (not .def_366))) (let ((.def_368 (and .def_367 .def_364))) (let ((.def_369 (not .def_368))) (let ((.def_370 (and .def_369 .def_357))) (let ((.def_371 (not .def_370))) (let ((.def_372 (not .def_357))) (let ((.def_373 (and .def_372 .def_368))) (let ((.def_374 (not .def_373))) (let ((.def_375 (and .def_374 .def_371))) (let ((.def_376 (not .def_375))) (let ((.def_377 (and .def_376 .def_346))) (let ((.def_378 (not .def_377))) (let ((.def_379 (and .def_375 .def_345))) (let ((.def_380 (not .def_379))) (let ((.def_381 (and .def_380 .def_378))) (let ((.def_382 (not .def_381))) (let ((.def_383 (and .def_80 .def_382))) (let ((.def_384 (not G478))) (let ((.def_385 (and .def_384 .def_383))) (let ((.def_386 (not .def_385))) (let ((.def_387 (not .def_383))) (let ((.def_388 (and .def_387 G478))) (let ((.def_389 (not .def_388))) (let ((.def_390 (and .def_389 .def_386))) (let ((.def_391 (and .def_390 .def_344))) (let ((.def_392 (and .def_391 .def_293 .def_194 .def_185 .def_93))) (let ((.def_393 (not .def_392))) (let ((.def_394 (and .def_390 .def_343))) (let ((.def_395 (not .def_247))) (let ((.def_396 (and .def_292 .def_395))) (let ((.def_397 (and .def_396 .def_194 .def_185 .def_93 .def_394))) (let ((.def_398 (not .def_397))) (let ((.def_399 (not .def_88))) (let ((.def_400 (and .def_92 .def_399))) (let ((.def_401 (and .def_394 .def_293 .def_194 .def_185 .def_400))) (let ((.def_402 (not .def_401))) (let ((.def_403 (not .def_390))) (let ((.def_404 (and .def_343 .def_403))) (let ((.def_405 (and .def_291 .def_247))) (let ((.def_406 (and .def_405 .def_404 .def_194 .def_185 .def_400))) (let ((.def_407 (not .def_406))) (let ((.def_408 (and .def_291 .def_395))) (let ((.def_409 (and .def_394 .def_408 .def_194 .def_185 .def_400))) (let ((.def_410 (not .def_409))) (let ((.def_411 (and .def_405 .def_391 .def_194 .def_185 .def_400))) (let ((.def_412 (not .def_411))) (let ((.def_413 (and .def_403 .def_344))) (let ((.def_414 (and .def_405 .def_413 .def_194 .def_185 .def_93))) (let ((.def_415 (not .def_414))) (let ((.def_416 (and .def_293 .def_404 .def_194 .def_185 .def_93))) (let ((.def_417 (not .def_416))) (let ((.def_418 (and .def_417 .def_415 .def_412 .def_410 .def_407 .def_402 .def_398 .def_393))) (let ((.def_419 (and .def_98 .def_183))) (let ((.def_420 (not G900))) (let ((.def_421 (and .def_187 G953 G902 .def_420))) (let ((.def_422 (not .def_421))) (let ((.def_423 (and .def_422 .def_192))) (let ((.def_424 (not .def_423))) (let ((.def_425 (and .def_400 .def_293 .def_424 .def_404 .def_419))) (let ((.def_426 (not .def_425))) (let ((.def_427 (and .def_400 .def_396 .def_424 .def_419 .def_394))) (let ((.def_428 (not .def_427))) (let ((.def_429 (and .def_396 .def_424 .def_404 .def_185 .def_400))) (let ((.def_430 (not .def_429))) (let ((.def_431 (and .def_400 .def_396 .def_391 .def_424 .def_185))) (let ((.def_432 (not .def_431))) (let ((.def_433 (and .def_400 .def_391 .def_293 .def_424 .def_419))) (let ((.def_434 (not .def_433))) (let ((.def_435 (and .def_391 .def_424 .def_408 .def_185 .def_93))) (let ((.def_436 (not .def_435))) (let ((.def_437 (and .def_400 .def_391 .def_424 .def_408 .def_419))) (let ((.def_438 (not .def_437))) (let ((.def_439 (and .def_400 .def_413 .def_293 .def_424 .def_185))) (let ((.def_440 (not .def_439))) (let ((.def_441 (and .def_440 .def_438 .def_436 .def_434 .def_432 .def_430 .def_428 .def_426))) (let ((.def_442 (and .def_441 .def_418))) (let ((.def_443 (not .def_442))) (let ((.def_444 (and .def_443 G902 G478))) (let ((.def_445 (and .def_381 .def_444))) (let ((.def_446 (not .def_445))) (let ((.def_447 (not .def_444))) (let ((.def_448 (and .def_382 .def_447))) (let ((.def_449 (not .def_448))) (let ((.def_450 (and .def_449 .def_446))) (let ((.def_451 (not .def_450))) (let ((.def_452 (not G952))) (let ((.def_453 (and .def_452 G953))) (let ((.def_454 (not .def_453))) (let ((.def_455 (and .def_454 .def_451))) (let ((.def_456 (and G224 G898))) (let ((.def_457 (not .def_456))) (let ((.def_458 (and .def_457 G953))) (let ((.def_459 (and .def_126 .def_127))) (let ((.def_460 (not .def_459))) (let ((.def_461 (and .def_460 .def_125))) (let ((.def_462 (and .def_136 .def_461))) (let ((.def_463 (not .def_462))) (let ((.def_464 (not .def_461))) (let ((.def_465 (and .def_464 .def_140))) (let ((.def_466 (not .def_465))) (let ((.def_467 (and .def_466 .def_463))) (let ((.def_468 (and .def_188 G953))) (let ((.def_469 (not .def_468))) (let ((.def_470 (and .def_469 .def_467))) (let ((.def_471 (not .def_470))) (let ((.def_472 (not .def_418))) (let ((.def_473 (and .def_7 .def_472))) (let ((.def_474 (and .def_473 .def_471))) (let ((.def_475 (not .def_474))) (let ((.def_476 (not .def_473))) (let ((.def_477 (and .def_476 .def_470))) (let ((.def_478 (not .def_477))) (let ((.def_479 (and .def_478 .def_475))) (let ((.def_480 (and .def_479 .def_458))) (let ((.def_481 (not .def_480))) (let ((.def_482 (not .def_458))) (let ((.def_483 (not .def_479))) (let ((.def_484 (and .def_483 .def_482))) (let ((.def_485 (not .def_484))) (let ((.def_486 (and .def_485 .def_481))) (let ((.def_487 (and .def_0 .def_437))) (let ((.def_488 (not .def_487))) (let ((.def_489 (and G140 .def_438))) (let ((.def_490 (not .def_489))) (let ((.def_491 (and .def_490 .def_488))) (let ((.def_492 (not .def_491))) (let ((.def_493 (and .def_406 .def_17))) (let ((.def_494 (not .def_493))) (let ((.def_495 (and G107 .def_407))) (let ((.def_496 (not .def_495))) (let ((.def_497 (and .def_496 .def_494))) (let ((.def_498 (not .def_497))) (let ((.def_499 (and .def_443 G902 .def_241))) (let ((.def_500 (and .def_499 .def_237))) (let ((.def_501 (not .def_500))) (let ((.def_502 (not .def_499))) (let ((.def_503 (and .def_502 .def_238))) (let ((.def_504 (not .def_503))) (let ((.def_505 (and .def_504 .def_501))) (let ((.def_506 (not .def_505))) (let ((.def_507 (and .def_506 .def_454))) (let ((.def_508 (and .def_133 .def_414))) (let ((.def_509 (not .def_508))) (let ((.def_510 (and .def_415 G122))) (let ((.def_511 (not .def_510))) (let ((.def_512 (and .def_511 .def_509))) (let ((.def_513 (not .def_512))) (let ((.def_514 (and G900 G227))) (let ((.def_515 (not .def_514))) (let ((.def_516 (and G953 .def_515))) (let ((.def_517 (and G125 .def_0))) (let ((.def_518 (not .def_517))) (let ((.def_519 (and .def_207 .def_518))) (let ((.def_520 (and G137 .def_55))) (let ((.def_521 (not .def_520))) (let ((.def_522 (and .def_521 .def_54))) (let ((.def_523 (not .def_522))) (let ((.def_524 (and .def_523 G131))) (let ((.def_525 (not .def_524))) (let ((.def_526 (and .def_59 .def_522))) (let ((.def_527 (not .def_526))) (let ((.def_528 (and .def_527 .def_525))) (let ((.def_529 (and .def_528 .def_44))) (let ((.def_530 (not .def_529))) (let ((.def_531 (not .def_528))) (let ((.def_532 (and .def_45 .def_531))) (let ((.def_533 (not .def_532))) (let ((.def_534 (and .def_533 .def_530))) (let ((.def_535 (and .def_534 .def_519))) (let ((.def_536 (not .def_535))) (let ((.def_537 (not .def_519))) (let ((.def_538 (not .def_534))) (let ((.def_539 (and .def_538 .def_537))) (let ((.def_540 (not .def_539))) (let ((.def_541 (and .def_540 .def_536))) (let ((.def_542 (and G953 .def_420))) (let ((.def_543 (not .def_542))) (let ((.def_544 (and .def_543 .def_541))) (let ((.def_545 (not .def_544))) (let ((.def_546 (not .def_441))) (let ((.def_547 (and .def_546 .def_7))) (let ((.def_548 (and .def_547 .def_545))) (let ((.def_549 (not .def_548))) (let ((.def_550 (not .def_547))) (let ((.def_551 (and .def_550 .def_544))) (let ((.def_552 (not .def_551))) (let ((.def_553 (and .def_552 .def_549))) (let ((.def_554 (and .def_553 .def_516))) (let ((.def_555 (not .def_554))) (let ((.def_556 (not .def_516))) (let ((.def_557 (not .def_553))) (let ((.def_558 (and .def_557 .def_556))) (let ((.def_559 (not .def_558))) (let ((.def_560 (and .def_559 .def_555))) (let ((.def_561 (and G125 .def_436))) (let ((.def_562 (not .def_561))) (let ((.def_563 (and .def_144 .def_435))) (let ((.def_564 (not .def_563))) (let ((.def_565 (and .def_564 .def_562))) (let ((.def_566 (not .def_565))) (let ((.def_567 (and .def_109 .def_392))) (let ((.def_568 (not .def_567))) (let ((.def_569 (and G113 .def_393))) (let ((.def_570 (not .def_569))) (let ((.def_571 (and .def_570 .def_568))) (let ((.def_572 (and .def_416 .def_102))) (let ((.def_573 (not .def_572))) (let ((.def_574 (and G116 .def_417))) (let ((.def_575 (not .def_574))) (let ((.def_576 (and .def_575 .def_573))) (let ((.def_577 (and G125 .def_156))) (let ((.def_578 (not .def_577))) (let ((.def_579 (and .def_578 .def_155))) (let ((.def_580 (and .def_160 .def_579))) (let ((.def_581 (not .def_580))) (let ((.def_582 (not .def_579))) (let ((.def_583 (and .def_582 .def_163))) (let ((.def_584 (not .def_583))) (let ((.def_585 (and .def_584 .def_581))) (let ((.def_586 (and .def_170 .def_585))) (let ((.def_587 (not .def_586))) (let ((.def_588 (not .def_585))) (let ((.def_589 (and .def_588 .def_143))) (let ((.def_590 (not .def_589))) (let ((.def_591 (and .def_590 .def_587))) (let ((.def_592 (and .def_443 G902 .def_177))) (let ((.def_593 (and .def_592 .def_591))) (let ((.def_594 (not .def_593))) (let ((.def_595 (not .def_592))) (let ((.def_596 (not .def_591))) (let ((.def_597 (and .def_596 .def_595))) (let ((.def_598 (not .def_597))) (let ((.def_599 (and .def_598 .def_594))) (let ((.def_600 (not .def_599))) (let ((.def_601 (and .def_600 .def_454))) (let ((.def_602 (not .def_601))) (let ((.def_603 (and .def_432 G146))) (let ((.def_604 (not .def_603))) (let ((.def_605 (and .def_431 .def_31))) (let ((.def_606 (not .def_605))) (let ((.def_607 (and .def_606 .def_604))) (let ((.def_608 (not .def_607))) (let ((.def_609 (and .def_402 G101))) (let ((.def_610 (not .def_609))) (let ((.def_611 (and .def_16 .def_401))) (let ((.def_612 (not .def_611))) (let ((.def_613 (and .def_612 .def_610))) (let ((.def_614 (not .def_613))) (let ((.def_615 (and .def_99 .def_397))) (let ((.def_616 (not .def_615))) (let ((.def_617 (and .def_398 G119))) (let ((.def_618 (not .def_617))) (let ((.def_619 (and .def_618 .def_616))) (let ((.def_620 (and .def_443 G902 G475))) (let ((.def_621 (and .def_334 .def_620))) (let ((.def_622 (not .def_621))) (let ((.def_623 (not .def_620))) (let ((.def_624 (and .def_623 .def_335))) (let ((.def_625 (not .def_624))) (let ((.def_626 (and .def_625 .def_622))) (let ((.def_627 (not .def_626))) (let ((.def_628 (and .def_454 .def_627))) (let ((.def_629 (and .def_628 .def_619 .def_614 .def_608 .def_602 .def_576 .def_571 .def_566 .def_560 .def_513 .def_507 .def_498 .def_492 .def_486 .def_455))) .def_629)))))))))))))))))))))))))))))))))))))))))))))))))))))))))))))))))))))))))))))))))))))))))))))))))))))))))))))))))))))))))))))))))))))))))))))))))))))))))))))))))))))))))))))))))))))))))))))))))))))))))))))))))))))))))))))))))))))))))))))))))))))))))))))))))))))))))))))))))))))))))))))))))))))))))))))))))))))))))))))))))))))))))))))))))))))))))))))))))))))))))))))))))))))))))))))))))))))))))))))))))))))))))))))))))))))))))))))))))))))))))))))))))))))))))))))))))))))))))))))))))))))))))))))))))))))))))))))))))))))))))))))))))))))))))))))))))))))))))))))))))))))))))))))))))))))))))))))))))))))))))))))))))))))))))))))))))))))))
(check-sat)
